c gen_tree
c PARAM_SIZE 100
c PARAM_MAX_CHILD 5
c PARAM_CHILD_VAR 0.5
c PARAM_CHILD_PRUNE 2
c PARAM_RESTARTS 3
c PARAM_RESTART_CHANCE 0.1
c PARAM_UNIT_CHANCE 0.0
c PARAM_TRIAD_CHANCE 0.2
p cnf 22 28
1 2 0
-1 3 0
-1 4 0
-1 -5 0
-2 3 -1 0
-2 6 0
3 7 0
3 8 0
7 8 3 0
-7 9 0
-8 -10 0
-10 -11 0
11 12 0
4 13 0
13 14 0
-5 -15 0
-15 16 0
3 -18 0
3 -17 0
18 17 0
14 -20 0
14 -19 0
20 19 0
9 -22 0
9 -21 0
22 21 0
9 -14 0
12 -6 0
